webassembly/ejemplos_dzn/9/folder9_json_80.dzn
TERM = { '.', 's(2)', 'in_10', 'in_1', 'local_0', 'local_1', 'in_6', 'in_2', 'in_4', 'in_3', 'in_9', 'in_8', 's(0)', 'in_7', 'in_5', 's(3)', 'in_0'};
null = '.';
s = 9;
n = 16;
ndeps = 2;
max_registers_sz = 5;
NR = 2;
registers = [|'local_0', 'in_7', |'local_1', 'in_4'|];
dependencies = [|'i32.load8_u_0', 'i32.store16_3', |'i32.store16_3', 'i32.store16_5'|];
GET_ENUM = { GET1, GET2, GET3, GET4, GET5, GET6, GET7};
SET_ENUM = { SET1, SET2, SET3, SET4, SET5, SET6, SET7};
TEE_ENUM = { TEE1, TEE2, TEE3, TEE4, TEE5, TEE6, TEE7};
N = 5;
OP = { 'i32.add_0', 'i32.add_1', 'i32.load8_u_0', 'i32.store16_3', 'i32.store16_5' };
in_ops = [2, 2, 1, 2, 2 ];
out_ops = [1, 1, 1, 0, 0 ];
in1 = ['in_8', 's(2)', 'in_0', 'in_2', 'in_5' ];
in2 = ['in_9', 'in_10', '.', 'in_3', 'in_6' ];
in3 = ['.', '.', '.', '.', '.' ];
out1 = ['s(2)', 's(3)', 's(0)', '.', '.' ];
out2 = ['.', '.', '.', '.', '.' ];
out3 = ['.', '.', '.', '.', '.' ];
comm = [true, true, false, false, false ];
gas = [1, 1, 1, 1, 1 ];
sz = [1, 1, 1, 1, 1 ];
stor = [false, false, false, true, true ];
lb = [ 1, 1, 1, 1, 1 ];
ub = [ 9, 9, 9, 9, 9 ];
startstack = [ 'in_0', 'in_1', 'in_2', 'in_3', 'in_4', 'in_5', 'in_6', 'in_7', 'in_8', 'in_9', 'in_10', null, null, null, null, null ];
endstack = [ 's(3)', null, null, null, null, null, null, null, null, null, null, null, null, null, null, null ];
